%SETS
JOBS     = 1..2;
MACHINES = 1..20;
SPEED    = 1;

time               = array3d(JOBS,MACHINES,1..SPEED,[98, 81, 51, 80, 20, 67, 22, 95, 56, 47, 33, 79, 51, 61, 11, 65, 65, 65, 94, 71, 42, 49, 72, 15, 70, 70, 28, 21, 38, 42, 61, 49, 98, 19, 28, 24, 68, 32, 51, 31]);
energy             = array3d(JOBS,MACHINES,1..SPEED,[37, 44, 60, 44, 81, 51, 80, 38, 57, 62, 71, 45, 60, 54, 89, 52, 52, 52, 39, 49, 65, 61, 48, 86, 49, 49, 75, 81, 68, 65, 54, 61, 37, 82, 75, 78, 50, 72, 60, 73]);
precedence         = array2d(JOBS,MACHINES,[13,10,9,14,8,16,0,3,2,15,1,6,5,18,4,19,17,12,11,7,16,1,14,6,2,4,7,18,3,17,15,13,8,5,10,12,19,9,11,0]);